U_100_1.txt

VEHICLE     CAPACITY  LOCATIONS  CUSTOMER  OPTIONS  PRIORITIES  NUMTYPS
10		150		121		100		200		3		4

CUSTOMER  DEMAND
0	 10
1	 11
2	 17
3	 13
4	 17
5	 13
6	 11
7	 17
8	 20
9	 20
10	 16
11	 14
12	 11
13	 11
14	 14
15	 17
16	 13
17	 11
18	 13
19	 15
20	 12
21	 16
22	 15
23	 14
24	 15
25	 19
26	 18
27	 10
28	 15
29	 13
30	 15
31	 19
32	 12
33	 12
34	 10
35	 12
36	 10
37	 16
38	 16
39	 20
40	 14
41	 17
42	 12
43	 13
44	 20
45	 16
46	 10
47	 20
48	 10
49	 17
50	 10
51	 10
52	 16
53	 13
54	 10
55	 11
56	 19
57	 14
58	 12
59	 14
60	 13
61	 16
62	 11
63	 20
64	 16
65	 19
66	 12
67	 19
68	 11
69	 18
70	 16
71	 14
72	 11
73	 17
74	 15
75	 12
76	 20
77	 12
78	 13
79	 13
80	 20
81	 13
82	 18
83	 10
84	 20
85	 20
86	 18
87	 12
88	 17
89	 12
90	 10
91	 11
92	 14
93	 18
94	 14
95	 10
96	 16
97	 16
98	 19
99	 18

LOCATION  XCOORD  YCOORD  CAP  READY  DUE  TYP  SERVICETIME
0		41		33		-1		0		720	 0		0
1		29		36		-1		530		650		 2		6
2		11		26		-1		0		360		 2		6
3		7		22		-1		533		653		 2		6
4		1		19		-1		36		156		 2		6
5		20		30		-1		360		720		 2		6
6		13		33		-1		87		207		 2		6
7		9		41		-1		217		457		 2		6
8		46		38		-1		111		231		 2		6
9		47		12		-1		178		418		 2		6
10		30		40		-1		560		680		 2		6
11		40		18		-1		396		516		 2		6
12		50		20		-1		20		140		 2		6
13		30		29		-1		29		149		 2		6
14		34		5		-1		403		523		 2		6
15		44		18		-1		180		420		 2		6
16		6		21		-1		226		466		 2		6
17		18		5		-1		273		513		 2		6
18		2		50		-1		16		136		 2		6
19		41		2		-1		0		360		 2		6
20		7		49		-1		291		531		 2		6
21		50		47		-1		360		720		 2		6
22		33		27		-1		500		620		 2		6
23		33		24		-1		394		634		 2		6
24		23		2		-1		531		651		 2		6
25		42		36		-1		360		720		 2		6
26		32		41		-1		193		433		 2		6
27		10		24		-1		511		631		 2		6
28		37		24		-1		108		228		 2		6
29		9		27		-1		360		720		 2		6
30		24		50		-1		44		284		 2		6
31		33		5		-1		513		633		 2		6
32		27		15		-1		400		520		 2		6
33		30		41		-1		360		720		 2		6
34		10		21		-1		518		638		 2		6
35		42		25		-1		360		720		 2		6
36		24		27		-1		323		563		 2		6
37		30		28		-1		270		510		 2		6
38		42		12		-1		0		360		 2		6
39		8		13		-1		360		720		 2		6
40		6		1		-1		83		203		 2		6
41		12		9		-1		0		360		 2		6
42		29		35		-1		33		153		 2		6
43		5		37		-1		494		614		 2		6
44		46		13		-1		277		517		 2		6
45		13		35		-1		561		681		 2		6
46		3		49		-1		482		602		 2		6
47		10		3		-1		360		720		 2		6
48		49		2		-1		130		250		 2		6
49		3		16		-1		414		654		 2		6
50		14		30		-1		121		241		 2		6
51		48		38		-1		393		633		 2		6
52		36		44		-1		360		720		 2		6
53		10		37		-1		25		145		 2		6
54		34		32		-1		216		336		 2		6
55		30		15		-1		134		374		 2		6
56		18		16		-1		206		326		 2		6
57		32		8		-1		395		635		 2		6
58		38		10		-1		0		360		 2		6
59		19		20		-1		360		720		 2		6
60		31		34		-1		104		224		 2		6
61		45		37		-1		435		675		 2		6
62		7		16		-1		533		653		 2		6
63		1		35		-1		360		720		 2		6
64		9		46		-1		128		248		 2		6
65		20		42		-1		138		258		 2		6
66		12		19		-1		128		248		 2		6
67		22		35		-1		360		720		 2		6
68		41		10		-1		169		409		 2		6
69		50		19		-1		431		671		 2		6
70		43		38		-1		0		360		 2		6
71		16		39		-1		368		488		 2		6
72		26		29		-1		468		588		 2		6
73		30		34		-1		328		568		 2		6
74		47		36		-1		360		720		 2		6
75		35		42		-1		360		720		 2		6
76		26		43		-1		11		131		 2		6
77		19		48		-1		0		360		 2		6
78		48		16		-1		582		702		 2		6
79		30		9		-1		360		720		 2		6
80		47		37		-1		213		453		 2		6
81		33		27		-1		220		460		 2		6
82		36		1		-1		147		267		 2		6
83		39		7		-1		457		577		 2		6
84		34		22		-1		360		720		 2		6
85		13		47		-1		45		165		 2		6
86		36		42		-1		68		308		 2		6
87		4		46		-1		0		360		 2		6
88		26		7		-1		446		686		 2		6
89		25		16		-1		135		375		 2		6
90		4		21		-1		381		501		 2		6
91		14		40		-1		49		169		 2		6
92		39		31		-1		76		196		 2		6
93		26		43		-1		593		713		 2		6
94		5		41		-1		591		711		 2		6
95		48		18		-1		360		720		 2		6
96		34		20		-1		0		360		 2		6
97		12		5		-1		0		360		 2		6
98		50		2		-1		360		720		 2		6
99		33		3		-1		0		360		 2		6
100		14		37		-1		114		234		 2		6
101		13		30		5		43		523		 1		4
102		9		28		5		0		720		 1		4
103		32		33		5		0		720		 1		4
104		15		32		5		0		720		 1		4
105		45		7		4		0		720		 1		4
106		45		8		5		178		658		 1		4
107		9		19		5		26		506		 1		4
108		16		27		4		0		720		 1		4
109		34		26		5		83		563		 1		4
110		43		45		5		15		495		 1		4
111		13		11		5		86		566		 1		4
112		40		20		5		219		699		 1		4
113		28		12		5		5		485		 1		4
114		10		12		3		0		720		 1		4
115		15		45		4		0		720		 1		4
116		39		31		5		163		643		 1		4
117		30		10		5		39		519		 1		4
118		43		21		5		235		715		 1		4
119		8		23		3		0		720		 1		4
120		35		40		4		0		720		 1		4
OPTION  LOCATION  CUSTOMER  PRIO  SERVICETIME   COST
0		106		0		0		2		0
1		107		1		0		2		0
2		107		2		0		2		0
3		109		3		0		2		0
4		110		4		0		2		0
5		102		5		0		2		0
6		104		6		0		2		0
7		120		7		0		2		0
8		104		8		0		2		0
9		109		9		0		2		0
10		110		10		0		2		0
11		111		11		0		2		0
12		119		12		0		2		0
13		103		13		0		2		0
14		117		14		0		2		0
15		103		15		0		2		0
16		109		16		0		2		0
17		107		17		0		2		0
18		106		18		0		2		0
19		106		19		0		2		0
20		1		20		0		5		0
21		2		21		0		5		0
22		3		22		0		5		0
23		4		23		0		5		0
24		5		24		0		5		0
25		6		25		0		5		0
26		7		26		0		5		0
27		8		27		0		5		0
28		9		28		0		5		0
29		10		29		0		5		0
30		11		30		0		5		0
31		12		31		0		5		0
32		13		32		0		5		0
33		14		33		0		5		0
34		15		34		0		5		0
35		16		35		0		5		0
36		17		36		0		5		0
37		18		37		0		5		0
38		19		38		0		5		0
39		20		39		0		5		0
40		21		40		0		5		0
41		106		40		1		2		0
42		22		41		1		5		0
43		118		41		0		2		0
44		23		42		1		5		0
45		110		42		0		2		0
46		24		43		0		5		0
47		107		43		1		2		0
48		25		44		1		5		0
49		118		44		0		2		0
50		26		45		1		5		0
51		103		45		0		2		0
52		27		46		0		5		0
53		108		46		1		2		0
54		28		47		0		5		0
55		112		47		1		2		0
56		29		48		1		5		0
57		101		48		0		2		0
58		30		49		0		5		0
59		103		49		1		2		0
60		31		50		0		5		0
61		105		50		1		2		0
62		32		51		1		5		0
63		109		51		0		2		0
64		33		52		0		5		0
65		101		52		1		2		0
66		34		53		0		5		0
67		102		53		1		2		0
68		35		54		0		5		0
69		112		54		1		2		0
70		36		55		0		5		0
71		107		55		1		2		0
72		37		56		0		5		0
73		116		56		1		2		0
74		38		57		0		5		0
75		118		57		1		2		0
76		39		58		0		5		0
77		112		58		1		2		0
78		40		59		1		5		0
79		119		59		0		2		0
80		41		60		1		5		0
81		101		60		2		2		0
82		109		60		0		2		0
83		42		61		2		5		0
84		104		61		0		2		0
85		114		61		1		2		0
86		43		62		2		5		0
87		108		62		1		2		0
88		106		62		0		2		0
89		44		63		2		5		0
90		104		63		0		2		0
91		114		63		1		2		0
92		45		64		2		5		0
93		101		64		0		2		0
94		102		64		1		2		0
95		46		65		2		5		0
96		115		65		1		2		0
97		109		65		0		2		0
98		47		66		1		5		0
99		119		66		2		2		0
100		107		66		0		2		0
101		48		67		0		5		0
102		106		67		1		2		0
103		116		67		2		2		0
104		49		68		2		5		0
105		114		68		0		2		0
106		120		68		1		2		0
107		50		69		1		5		0
108		104		69		2		2		0
109		119		69		0		2		0
110		51		70		2		5		0
111		118		70		0		2		0
112		116		70		1		2		0
113		52		71		0		5		0
114		109		71		2		2		0
115		101		71		1		2		0
116		53		72		1		5		0
117		102		72		0		2		0
118		115		72		2		2		0
119		54		73		1		5		0
120		108		73		2		2		0
121		111		73		0		2		0
122		55		74		0		5		0
123		109		74		2		2		0
124		118		74		1		2		0
125		56		75		2		5		0
126		103		75		1		2		0
127		113		75		0		2		0
128		57		76		1		5		0
129		105		76		0		2		0
130		115		76		2		2		0
131		58		77		1		5		0
132		105		77		2		2		0
133		113		77		0		2		0
134		59		78		0		5		0
135		119		78		1		2		0
136		112		78		2		2		0
137		60		79		2		5		0
138		111		79		0		2		0
139		120		79		1		2		0
140		61		80		0		5		0
141		62		80		1		5		0
142		114		80		2		2		0
143		63		81		1		5		0
144		64		81		0		5		0
145		101		81		2		2		0
146		65		82		2		5		0
147		66		82		1		5		0
148		108		82		0		2		0
149		67		83		1		5		0
150		68		83		2		5		0
151		112		83		0		2		0
152		69		84		1		5		0
153		70		84		0		5		0
154		112		84		2		2		0
155		71		85		1		5		0
156		72		85		0		5		0
157		111		85		2		2		0
158		73		86		2		5		0
159		74		86		1		5		0
160		105		86		0		2		0
161		75		87		0		5		0
162		76		87		1		5		0
163		102		87		2		2		0
164		77		88		0		5		0
165		78		88		1		5		0
166		118		88		2		2		0
167		79		89		2		5		0
168		80		89		0		5		0
169		116		89		1		2		0
170		81		90		1		5		0
171		82		90		0		5		0
172		112		90		2		2		0
173		83		91		1		5		0
174		84		91		0		5		0
175		104		91		2		2		0
176		85		92		0		5		0
177		86		92		1		5		0
178		115		92		2		2		0
179		87		93		2		5		0
180		88		93		0		5		0
181		108		93		1		2		0
182		89		94		2		5		0
183		90		94		0		5		0
184		106		94		1		2		0
185		91		95		1		5		0
186		92		95		2		5		0
187		105		95		0		2		0
188		93		96		2		5		0
189		94		96		1		5		0
190		115		96		0		2		0
191		95		97		0		5		0
192		96		97		1		5		0
193		109		97		2		2		0
194		97		98		0		5		0
195		98		98		2		5		0
196		106		98		1		2		0
197		99		99		1		5		0
198		100		99		2		5		0
199		115		99		0		2		0
